c p_line_PRED(c_student1,c_student1) PRED1(c_student1,c_student1) p_entity_student1(c_student1) p_entity_student0(c_student1) p_set_students(c_student1) p_line_NEXT_TO(c_student1,c_student1) LEQ(c_student1,c_student1) p_set_students(c_student0) LEQ(c_student0,c_student1) p_line_NEXT_TO(c_student1,c_student0) p_line_PRED(c_student0,c_student1) PRED1(c_student0,c_student1) p_line_NEXT_TO(c_student0,c_student1) p_entity_student1(c_student0) p_entity_student0(c_student0) p_line_PRED(c_student1,c_student0) LEQ(c_student1,c_student0) PRED1(c_student1,c_student0) p_line_NEXT_TO(c_student2,c_student1) p_entity_student1(c_student2) p_entity_student0(c_student2) LEQ(c_student1,c_student2) PRED1(c_student1,c_student2) PRED1(c_student2,c_student1) p_set_students(c_student2) p_line_NEXT_TO(c_student1,c_student2) p_line_PRED(c_student2,c_student1) LEQ(c_student2,c_student1) p_line_PRED(c_student1,c_student2) LEQ(c_student3,c_student1) p_entity_student1(c_student3) PRED1(c_student3,c_student1) PRED1(c_student1,c_student3) p_entity_student0(c_student3) p_line_NEXT_TO(c_student1,c_student3) LEQ(c_student1,c_student3) p_set_students(c_student3) p_line_NEXT_TO(c_student3,c_student1) p_line_PRED(c_student1,c_student3) p_line_PRED(c_student3,c_student1) PRED1(c_student0,c_student0) LEQ(c_student0,c_student0) p_line_PRED(c_student0,c_student0) p_line_NEXT_TO(c_student0,c_student0) PRED1(c_student2,c_student0) p_line_NEXT_TO(c_student0,c_student2) LEQ(c_student2,c_student0) p_line_PRED(c_student2,c_student0) PRED1(c_student0,c_student2) p_line_NEXT_TO(c_student2,c_student0) LEQ(c_student0,c_student2) p_line_PRED(c_student0,c_student2) PRED1(c_student0,c_student3) p_line_PRED(c_student0,c_student3) p_line_NEXT_TO(c_student0,c_student3) p_line_PRED(c_student3,c_student0) p_line_NEXT_TO(c_student3,c_student0) PRED1(c_student3,c_student0) LEQ(c_student0,c_student3) LEQ(c_student3,c_student0) PRED1(c_student2,c_student2) p_line_NEXT_TO(c_student2,c_student2) LEQ(c_student2,c_student2) p_line_PRED(c_student2,c_student2) PRED1(c_student3,c_student2) p_line_NEXT_TO(c_student2,c_student3) LEQ(c_student2,c_student3) p_line_PRED(c_student3,c_student2) p_line_PRED(c_student2,c_student3) p_line_NEXT_TO(c_student3,c_student2) LEQ(c_student3,c_student2) PRED1(c_student2,c_student3) p_line_NEXT_TO(c_student3,c_student3) LEQ(c_student3,c_student3) PRED1(c_student3,c_student3) p_line_PRED(c_student3,c_student3)
c 1 2 3 4 5 6 7 8 9 10 11 12 13 14 15 16 17 18 19 20 21 22 23 24 25 26 27 28 29 30 31 32 33 34 35 36 37 38 39 40 41 42 43 44 45 46 47 48 49 50 51 52 53 54 55 56 57 58 59 60 61 62 63 64 65 66 67 68 69 70 71 72 73 74 75 76
p cnf 76 280
41 -43 0
12 -11 0
49 -52 0
53 -54 0
18 -16 0
2 -1 0
23 -29 0
33 -39 0
45 -48 0
24 -27 0
61 -64 0
72 -69 0
58 -56 0
32 -40 0
65 -68 0
75 -76 0
44 -43 0
13 -11 0
13 -16 0
46 -52 0
46 -48 0
55 -54 0
55 -56 0
10 -11 0
10 -16 0
6 -1 0
26 -29 0
26 -27 0
35 -39 0
35 -40 0
50 -52 0
50 -48 0
19 -29 0
19 -27 0
62 -64 0
66 -69 0
66 -68 0
57 -54 0
57 -56 0
38 -39 0
38 -40 0
70 -69 0
70 -68 0
73 -76 0
43 -44 0
1 -6 0
64 -62 0
76 -73 0
8 -43 0
8 -11 0
8 -52 0
8 -54 0
8 -16 0
8 -48 0
8 -56 0
5 -11 0
5 -16 0
5 -1 0
5 -29 0
5 -39 0
5 -27 0
5 -40 0
25 -52 0
25 -29 0
25 -48 0
25 -27 0
25 -64 0
25 -69 0
25 -68 0
37 -54 0
37 -39 0
37 -69 0
37 -56 0
37 -40 0
37 -68 0
37 -76 0
42 8 -8 0
9 5 -8 0
51 25 -8 0
59 37 -8 0
17 8 -5 0
7 5 -5 0
22 25 -5 0
36 37 -5 0
47 8 -25 0
28 5 -25 0
63 25 -25 0
67 37 -25 0
60 8 -37 0
30 5 -37 0
71 25 -37 0
74 37 -37 0
11 16 -13 0
11 16 -10 0
52 48 -46 0
52 48 -50 0
54 56 -55 0
54 56 -57 0
29 27 -26 0
29 27 -19 0
39 40 -35 0
39 40 -38 0
69 68 -66 0
69 68 -70 0
43 -41 -8 0
1 -2 -5 0
64 -61 -25 0
76 -75 -37 0
-15 -14 -44 0
-15 -3 -13 0
-15 -20 -46 0
-15 -31 -55 0
-4 -14 -10 0
-4 -3 -6 0
-4 -20 -26 0
-4 -31 -35 0
-21 -14 -50 0
-21 -3 -19 0
-21 -20 -62 0
-21 -31 -66 0
-34 -14 -57 0
-34 -3 -38 0
-34 -20 -70 0
-34 -31 -73 0
11 -12 -8 -5 0
52 -49 -8 -25 0
54 -53 -8 -37 0
16 -18 -8 -5 0
29 -23 -5 -25 0
39 -33 -5 -37 0
48 -45 -8 -25 0
27 -24 -5 -25 0
69 -72 -25 -37 0
56 -58 -8 -37 0
40 -32 -5 -37 0
68 -65 -25 -37 0
8 0
3 0
-20 0
-21 0
37 0
25 0
15 0
-31 0
-34 0
5 0
-4 0
-14 0
42 0
9 17 0
-9 -17 0
-9 -22 51 0
-9 -36 59 0
51 47 0
-51 -47 0
-51 -28 9 0
-51 -67 59 0
59 60 0
-59 -60 0
-59 -30 9 0
-59 -71 51 0
7 0
-17 -51 22 0
-17 -59 36 0
22 28 0
-22 -28 0
-22 -47 17 0
-22 -67 36 0
36 30 0
-36 -30 0
-36 -60 17 0
-36 -71 22 0
63 0
-47 -9 28 0
-47 -59 67 0
-28 -17 47 0
-28 -36 67 0
67 71 0
-67 -71 0
-67 -60 47 0
-67 -30 28 0
74 0
-60 -9 30 0
-60 -51 71 0
-30 -17 60 0
-30 -22 71 0
-71 -47 60 0
-71 -28 30 0
-41 0
-41 42 0
-12 9 0
-49 51 0
-53 59 0
41 18 45 58 -17 0
41 18 45 58 -47 0
41 18 45 58 -60 0
41 12 49 53 -9 0
41 12 49 53 -51 0
41 12 49 53 -59 0
-12 51 -22 0
-12 -51 22 0
-12 59 -36 0
-12 -59 36 0
-49 9 -28 0
-49 -9 28 0
-49 59 -67 0
-49 -59 67 0
-53 9 -30 0
-53 -9 30 0
-53 51 -71 0
-53 -51 71 0
-2 0
-18 17 0
-2 7 0
-23 22 0
-33 36 0
12 2 24 32 -9 0
12 2 24 32 -28 0
12 2 24 32 -30 0
18 2 23 33 -17 0
18 2 23 33 -22 0
18 2 23 33 -36 0
-18 22 -51 0
-18 -22 51 0
-18 36 -59 0
-18 -36 59 0
-23 17 -47 0
-23 -17 47 0
-23 36 -67 0
-23 -36 67 0
-33 17 -60 0
-33 -17 60 0
-33 22 -71 0
-33 -22 71 0
-61 0
-45 47 0
-24 28 0
-61 63 0
-72 67 0
49 23 61 65 -51 0
49 23 61 65 -22 0
49 23 61 65 -71 0
45 24 61 72 -47 0
45 24 61 72 -28 0
45 24 61 72 -67 0
-45 28 -9 0
-45 -28 9 0
-45 67 -59 0
-45 -67 59 0
-24 47 -17 0
-24 -47 17 0
-24 67 -36 0
-24 -67 36 0
-72 47 -60 0
-72 -47 60 0
-72 28 -30 0
-72 -28 30 0
-75 0
-58 60 0
-32 30 0
-65 71 0
-75 74 0
53 33 72 75 -59 0
53 33 72 75 -36 0
53 33 72 75 -67 0
58 32 65 75 -60 0
58 32 65 75 -30 0
58 32 65 75 -71 0
-58 30 -9 0
-58 -30 9 0
-58 71 -51 0
-58 -71 51 0
-32 60 -17 0
-32 -60 17 0
-32 71 -22 0
-32 -71 22 0
-65 60 -47 0
-65 -60 47 0
-65 30 -28 0
-65 -30 28 0
